data/lp_files/q3/30_9.lp
\ Model foo
\ LP format - for model browsing. Use MPS format to capture full model detail.
Minimize
  z
Subject To
 allocateEach[1]: x[1,1] + x[2,1] = 1
 allocateEach[2]: x[1,2] + x[2,2] = 1
 allocateEach[3]: x[1,3] + x[2,3] = 1
 allocateEach[4]: x[1,4] + x[2,4] = 1
 allocateEach[5]: x[1,5] + x[2,5] = 1
 allocateEach[6]: x[1,6] + x[2,6] = 1
 allocateEach[7]: x[1,7] + x[2,7] = 1
 allocateEach[8]: x[1,8] + x[2,8] = 1
 allocateEach[9]: x[1,9] + x[2,9] = 1
 allocateEach[10]: x[1,10] + x[2,10] = 1
 allocateAllCash: cashProportion[1] + cashProportion[2] = 1
 findWorstP[1,2]: z + 0.170299727520436 cashProportion[1]
   - 0.170299727520436 cashProportion[2] + 0.1599455040871935 x[1,1]
   + 0.0389986376021798 x[1,2] + 0.1098092643051771 x[1,3]
   + 0.0755619891008174 x[1,4] + 0.00844686648501362 x[1,5]
   + 0.1512942779291553 x[1,6] + 0.0610013623978202 x[1,7]
   + 0.0310115803814714 x[1,8] + 0.0985183923705722 x[1,9]
   + 0.0951123978201635 x[1,10] - 0.1599455040871935 x[2,1]
   - 0.0389986376021798 x[2,2] - 0.1098092643051771 x[2,3]
   - 0.0755619891008174 x[2,4] - 0.00844686648501362 x[2,5]
   - 0.1512942779291553 x[2,6] - 0.0610013623978202 x[2,7]
   - 0.0310115803814714 x[2,8] - 0.0985183923705722 x[2,9]
   - 0.0951123978201635 x[2,10] >= 0
 findWorstP[2,1]: z - 0.1570845114671694 cashProportion[1]
   + 0.1570845114671694 cashProportion[2] - 0.0232170907948476 x[1,1]
   - 0.101885014137606 x[1,2] - 0.0786679233427584 x[1,3]
   - 0.0677819666980836 x[1,4] - 0.1026233113415017 x[1,5]
   - 0.1084197298146403 x[1,6] - 0.1224002513352184 x[1,7]
   - 0.0372604461200126 x[1,8] - 0.0441878730757147 x[1,9]
   - 0.1564718818724474 x[1,10] + 0.0232170907948476 x[2,1]
   + 0.101885014137606 x[2,2] + 0.0786679233427584 x[2,3]
   + 0.0677819666980836 x[2,4] + 0.1026233113415017 x[2,5]
   + 0.1084197298146403 x[2,6] + 0.1224002513352184 x[2,7]
   + 0.0372604461200126 x[2,8] + 0.0441878730757147 x[2,9]
   + 0.1564718818724474 x[2,10] >= 0
Bounds
 z <= 1
 -infinity <= cashProportion[1] <= 1
 -infinity <= cashProportion[2] <= 1
Binaries
 x[1,1] x[1,2] x[1,3] x[1,4] x[1,5] x[1,6] x[1,7] x[1,8] x[1,9] x[1,10]
 x[2,1] x[2,2] x[2,3] x[2,4] x[2,5] x[2,6] x[2,7] x[2,8] x[2,9] x[2,10]
End
