data/mps_files/pEFS/30_9.mps
NAME foo
ROWS
 N  OBJ
 E  allocateEach[1]
 E  allocateEach[2]
 E  allocateEach[3]
 E  allocateEach[4]
 E  allocateEach[5]
 E  allocateEach[6]
 E  allocateEach[7]
 E  allocateEach[8]
 E  allocateEach[9]
 E  allocateEach[10]
 E  allocateAllCash
 G  findWorstP[1,2]
 G  findWorstP[2,1]
COLUMNS
    z         OBJ       1
    z         findWorstP[1,2]  1
    z         findWorstP[2,1]  1
    cashProportion[1]  allocateAllCash  1
    cashProportion[1]  findWorstP[1,2]  0.170299727520436
    cashProportion[1]  findWorstP[2,1]  -1.5708451146716937e-01
    cashProportion[2]  allocateAllCash  1
    cashProportion[2]  findWorstP[1,2]  -0.170299727520436
    cashProportion[2]  findWorstP[2,1]  1.5708451146716937e-01
    MARKER    'MARKER'                 'INTORG'
    x[1,1]    allocateEach[1]  1
    x[1,1]    findWorstP[1,2]  1.5994550408719349e-01
    x[1,1]    findWorstP[2,1]  -2.3217090794847628e-02
    x[1,2]    allocateEach[2]  1
    x[1,2]    findWorstP[1,2]  3.8998637602179843e-02
    x[1,2]    findWorstP[2,1]  -1.0188501413760603e-01
    x[1,3]    allocateEach[3]  1
    x[1,3]    findWorstP[1,2]  1.0980926430517712e-01
    x[1,3]    findWorstP[2,1]  -0.0786679233427584
    x[1,4]    allocateEach[4]  1
    x[1,4]    findWorstP[1,2]  7.5561989100817448e-02
    x[1,4]    findWorstP[2,1]  -6.7781966698083576e-02
    x[1,5]    allocateEach[5]  1
    x[1,5]    findWorstP[1,2]  8.4468664850136238e-03
    x[1,5]    findWorstP[2,1]  -1.0262331134150172e-01
    x[1,6]    allocateEach[6]  1
    x[1,6]    findWorstP[1,2]  1.5129427792915531e-01
    x[1,6]    findWorstP[2,1]  -1.0841972981464028e-01
    x[1,7]    allocateEach[7]  1
    x[1,7]    findWorstP[1,2]  6.1001362397820169e-02
    x[1,7]    findWorstP[2,1]  -1.2240025133521835e-01
    x[1,8]    allocateEach[8]  1
    x[1,8]    findWorstP[1,2]  3.1011580381471393e-02
    x[1,8]    findWorstP[2,1]  -3.7260446120012565e-02
    x[1,9]    allocateEach[9]  1
    x[1,9]    findWorstP[1,2]  9.8518392370572222e-02
    x[1,9]    findWorstP[2,1]  -4.4187873075714736e-02
    x[1,10]   allocateEach[10]  1
    x[1,10]   findWorstP[1,2]  0.0951123978201635
    x[1,10]   findWorstP[2,1]  -1.5647188187244737e-01
    x[2,1]    allocateEach[1]  1
    x[2,1]    findWorstP[1,2]  -1.5994550408719349e-01
    x[2,1]    findWorstP[2,1]  2.3217090794847628e-02
    x[2,2]    allocateEach[2]  1
    x[2,2]    findWorstP[1,2]  -3.8998637602179843e-02
    x[2,2]    findWorstP[2,1]  1.0188501413760603e-01
    x[2,3]    allocateEach[3]  1
    x[2,3]    findWorstP[1,2]  -1.0980926430517712e-01
    x[2,3]    findWorstP[2,1]  0.0786679233427584
    x[2,4]    allocateEach[4]  1
    x[2,4]    findWorstP[1,2]  -7.5561989100817448e-02
    x[2,4]    findWorstP[2,1]  6.7781966698083576e-02
    x[2,5]    allocateEach[5]  1
    x[2,5]    findWorstP[1,2]  -8.4468664850136238e-03
    x[2,5]    findWorstP[2,1]  1.0262331134150172e-01
    x[2,6]    allocateEach[6]  1
    x[2,6]    findWorstP[1,2]  -1.5129427792915531e-01
    x[2,6]    findWorstP[2,1]  1.0841972981464028e-01
    x[2,7]    allocateEach[7]  1
    x[2,7]    findWorstP[1,2]  -6.1001362397820169e-02
    x[2,7]    findWorstP[2,1]  1.2240025133521835e-01
    x[2,8]    allocateEach[8]  1
    x[2,8]    findWorstP[1,2]  -3.1011580381471393e-02
    x[2,8]    findWorstP[2,1]  3.7260446120012565e-02
    x[2,9]    allocateEach[9]  1
    x[2,9]    findWorstP[1,2]  -9.8518392370572222e-02
    x[2,9]    findWorstP[2,1]  4.4187873075714736e-02
    x[2,10]   allocateEach[10]  1
    x[2,10]   findWorstP[1,2]  -0.0951123978201635
    x[2,10]   findWorstP[2,1]  1.5647188187244737e-01
    MARKER    'MARKER'                 'INTEND'
RHS
    RHS1      allocateEach[1]  1
    RHS1      allocateEach[2]  1
    RHS1      allocateEach[3]  1
    RHS1      allocateEach[4]  1
    RHS1      allocateEach[5]  1
    RHS1      allocateEach[6]  1
    RHS1      allocateEach[7]  1
    RHS1      allocateEach[8]  1
    RHS1      allocateEach[9]  1
    RHS1      allocateEach[10]  1
    RHS1      allocateAllCash  1
BOUNDS
 UP BND1      z         1
 MI BND1      cashProportion[1]
 UP BND1      cashProportion[1]  1
 MI BND1      cashProportion[2]
 UP BND1      cashProportion[2]  1
 BV BND1      x[1,1]  
 BV BND1      x[1,2]  
 BV BND1      x[1,3]  
 BV BND1      x[1,4]  
 BV BND1      x[1,5]  
 BV BND1      x[1,6]  
 BV BND1      x[1,7]  
 BV BND1      x[1,8]  
 BV BND1      x[1,9]  
 BV BND1      x[1,10] 
 BV BND1      x[2,1]  
 BV BND1      x[2,2]  
 BV BND1      x[2,3]  
 BV BND1      x[2,4]  
 BV BND1      x[2,5]  
 BV BND1      x[2,6]  
 BV BND1      x[2,7]  
 BV BND1      x[2,8]  
 BV BND1      x[2,9]  
 BV BND1      x[2,10] 
ENDATA
